n_machines = 10;
n_resources = 17;
n_jobs = 43;
horizon = 2071;
LB = 247;
n_jobs_per_resource = [2, 3, 2, 3, 2, 3, 3, 2, 4, 2, 3, 1, 2, 2, 4, 3, 2];
duration = [38, 84, 3, 77, 19, 75, 23, 31, 47, 14, 19, 15, 43, 78, 18, 83, 78, 86, 98, 8, 77, 39, 97, 4, 91, 17, 53, 60, 21, 89, 27, 77, 55, 93, 5, 73, 10, 22, 16, 16, 70, 25, 97]